NAME: n500q20H.tsp, 500 nodes, semilla 777
COMMENT: Problema aleatorio de norma euclidea
DIMENSION: 500
CAPACITY: 20
EDGE_WEIGHT_TYPE: EUC_2D
NODE_COORD_SECTION
1   0.0000   0.0000
2 -108.0000  76.0000
3 372.0000 -432.0000
4 -57.0000 388.0000
5 286.0000 409.0000
6 424.0000 169.0000
7  58.0000 -497.0000
8 221.0000 118.0000
9 470.0000 380.0000
10 -431.0000 -422.0000
11 305.0000 -58.0000
12 457.0000 196.0000
13 493.0000 269.0000
14 281.0000 -259.0000
15 -172.0000 -484.0000
16 263.0000 -258.0000
17 -427.0000 153.0000
18 351.0000 314.0000
19 478.0000 120.0000
20 -415.0000 -203.0000
21  20.0000 -92.0000
22 113.0000 237.0000
23  57.0000 447.0000
24 -322.0000 -129.0000
25 253.0000 -27.0000
26 -387.0000 -243.0000
27 -72.0000 212.0000
28 246.0000 -337.0000
29  71.0000 279.0000
30 351.0000 -457.0000
31 253.0000 100.0000
32 -65.0000  26.0000
33 324.0000 -23.0000
34 -354.0000 -28.0000
35 332.0000 270.0000
36 276.0000 -117.0000
37 -389.0000 -49.0000
38 191.0000 -497.0000
39 189.0000 -47.0000
40 361.0000 -152.0000
41 -322.0000 -497.0000
42 -320.0000 248.0000
43 -50.0000 -235.0000
44 143.0000 -206.0000
45 -459.0000 365.0000
46 -370.0000 -388.0000
47 311.0000 264.0000
48 382.0000  49.0000
49 -463.0000 -424.0000
50 -408.0000 354.0000
51 109.0000  -5.0000
52 -410.0000 -226.0000
53 -286.0000 306.0000
54 162.0000 -185.0000
55 -248.0000 395.0000
56 477.0000 120.0000
57 466.0000 -460.0000
58 155.0000 243.0000
59 -324.0000 -359.0000
60 -283.0000 335.0000
61 -121.0000  87.0000
62 -194.0000 371.0000
63 275.0000 -94.0000
64 -349.0000 348.0000
65 -59.0000 -76.0000
66 -91.0000 -227.0000
67 -223.0000 399.0000
68 321.0000 -473.0000
69 162.0000 325.0000
70 -335.0000 -362.0000
71 295.0000 -114.0000
72 -316.0000 -313.0000
73 -488.0000   2.0000
74 252.0000 -289.0000
75 -30.0000 -153.0000
76 215.0000 422.0000
77 -226.0000 -107.0000
78 400.0000 -212.0000
79 -255.0000 120.0000
80 -458.0000 386.0000
81 368.0000 -346.0000
82  77.0000 156.0000
83 -438.0000 -70.0000
84 171.0000 357.0000
85 -38.0000 -216.0000
86 -130.0000 -21.0000
87 397.0000 -422.0000
88 -379.0000  13.0000
89 -111.0000 -302.0000
90 -212.0000 467.0000
91 -49.0000 -336.0000
92 100.0000 -115.0000
93  18.0000  47.0000
94  -6.0000 143.0000
95  40.0000 -189.0000
96 -233.0000  91.0000
97 -175.0000 -250.0000
98 -288.0000 -97.0000
99 -291.0000 -69.0000
100 -170.0000 -56.0000
101 459.0000 -494.0000
102 312.0000 391.0000
103 424.0000 286.0000
104 144.0000 187.0000
105 -228.0000 -213.0000
106 -356.0000 -128.0000
107 -237.0000 108.0000
108  54.0000 -50.0000
109  42.0000 468.0000
110 310.0000 261.0000
111 273.0000 -453.0000
112  22.0000 247.0000
113 192.0000 -221.0000
114 494.0000 -202.0000
115 -203.0000  92.0000
116 -263.0000 129.0000
117 -59.0000 -27.0000
118 -409.0000 -31.0000
119   0.0000 403.0000
120  21.0000  -8.0000
121 282.0000 -449.0000
122 298.0000 292.0000
123 -193.0000 -301.0000
124 204.0000 -160.0000
125 223.0000 197.0000
126 130.0000 277.0000
127 -117.0000 -64.0000
128 -13.0000 407.0000
129 -473.0000 -497.0000
130 167.0000 -366.0000
131 -184.0000  -5.0000
132 244.0000 447.0000
133 335.0000  15.0000
134 -324.0000 121.0000
135 -458.0000 -246.0000
136 -460.0000 445.0000
137 -125.0000 -380.0000
138  64.0000 -287.0000
139  43.0000 157.0000
140 -107.0000 -364.0000
141 -191.0000 -142.0000
142 304.0000 -361.0000
143 -273.0000  89.0000
144 254.0000 -486.0000
145 -245.0000 -40.0000
146 379.0000 282.0000
147 158.0000  33.0000
148 150.0000 -174.0000
149 210.0000 -415.0000
150 -171.0000 335.0000
151 -278.0000 433.0000
152 -331.0000 417.0000
153 -282.0000 283.0000
154  85.0000 -106.0000
155 -314.0000   9.0000
156 451.0000 -351.0000
157 -313.0000 499.0000
158 279.0000 107.0000
159 292.0000 320.0000
160 167.0000 137.0000
161 -17.0000 383.0000
162 306.0000 159.0000
163 -136.0000 -434.0000
164 -455.0000 -342.0000
165 309.0000 -246.0000
166 -85.0000 -124.0000
167 235.0000 -496.0000
168 -408.0000 244.0000
169 -149.0000 180.0000
170 104.0000 140.0000
171 -23.0000 448.0000
172 117.0000 351.0000
173 153.0000 216.0000
174 -130.0000 450.0000
175  19.0000 211.0000
176 286.0000 379.0000
177 -47.0000 -180.0000
178 -43.0000 223.0000
179 -394.0000 -310.0000
180 -108.0000 264.0000
181 -287.0000 484.0000
182 166.0000 319.0000
183 -199.0000 305.0000
184 -59.0000 -42.0000
185 -44.0000 -465.0000
186 -301.0000 -398.0000
187 411.0000 242.0000
188 -349.0000 375.0000
189 144.0000 -472.0000
190 423.0000 284.0000
191 139.0000  83.0000
192 315.0000 432.0000
193  49.0000 207.0000
194 474.0000 -20.0000
195 -225.0000 -228.0000
196 407.0000 -109.0000
197 213.0000 -451.0000
198 343.0000 -215.0000
199 -66.0000 138.0000
200 101.0000 -16.0000
201 118.0000 228.0000
202 -491.0000 -328.0000
203 277.0000 -177.0000
204 -275.0000 -417.0000
205 -228.0000 -459.0000
206 417.0000 -233.0000
207 -323.0000 224.0000
208  15.0000 488.0000
209 296.0000 -169.0000
210 -470.0000 -450.0000
211  19.0000 -387.0000
212 -478.0000 -52.0000
213 242.0000 383.0000
214 108.0000 240.0000
215 400.0000 -187.0000
216 134.0000 209.0000
217 -164.0000 490.0000
218 -226.0000 -409.0000
219 -345.0000 -337.0000
220  -5.0000 466.0000
221  20.0000 477.0000
222 -372.0000 373.0000
223 -87.0000 -38.0000
224 -480.0000 -404.0000
225 -106.0000 -363.0000
226 -66.0000  60.0000
227 -452.0000 -411.0000
228 118.0000 -462.0000
229 335.0000 304.0000
230 -113.0000 -106.0000
231  -9.0000 -128.0000
232 -446.0000 -319.0000
233 476.0000 -94.0000
234 102.0000 -91.0000
235 344.0000 -31.0000
236 -434.0000 -27.0000
237 281.0000 217.0000
238 200.0000 117.0000
239 382.0000  56.0000
240 488.0000 -197.0000
241 146.0000 386.0000
242 -212.0000 413.0000
243 -177.0000 -260.0000
244 289.0000 -307.0000
245 206.0000 -320.0000
246   6.0000 -429.0000
247 -476.0000 363.0000
248 -145.0000 377.0000
249 -186.0000 484.0000
250 -371.0000 -43.0000
251 472.0000 -313.0000
252 -476.0000 -14.0000
253 -414.0000 456.0000
254 109.0000 -440.0000
255 -51.0000 -157.0000
256 253.0000 -451.0000
257 -163.0000 259.0000
258 -434.0000 -100.0000
259 103.0000 378.0000
260 -420.0000 141.0000
261 -492.0000 305.0000
262  91.0000 101.0000
263 -162.0000  72.0000
264 -249.0000 -32.0000
265 -197.0000 280.0000
266 -373.0000 140.0000
267 424.0000 495.0000
268 406.0000 -224.0000
269 376.0000 -220.0000
270 -373.0000 108.0000
271 197.0000 -445.0000
272 137.0000 203.0000
273 -450.0000 491.0000
274 -429.0000 278.0000
275 130.0000  86.0000
276 -249.0000 235.0000
277 -301.0000 321.0000
278 364.0000 -370.0000
279 -202.0000 -250.0000
280 -368.0000 286.0000
281 267.0000   6.0000
282 -336.0000 -356.0000
283  72.0000 -190.0000
284 197.0000 -385.0000
285 -269.0000 123.0000
286 -69.0000 412.0000
287 -265.0000 232.0000
288 370.0000 -404.0000
289 -186.0000 -31.0000
290 -366.0000 -75.0000
291 -24.0000 418.0000
292 -221.0000  94.0000
293 -285.0000 226.0000
294 -117.0000 149.0000
295  60.0000 -44.0000
296 -124.0000 -140.0000
297 -331.0000 -275.0000
298 -91.0000 500.0000
299 -385.0000  88.0000
300 -137.0000 -136.0000
301 138.0000  78.0000
302 -277.0000 -267.0000
303 266.0000 -118.0000
304 474.0000 184.0000
305 100.0000 236.0000
306  29.0000  -7.0000
307 -334.0000 124.0000
308 -378.0000 -74.0000
309 131.0000 170.0000
310 -465.0000 427.0000
311 -233.0000 147.0000
312 -158.0000 145.0000
313 -351.0000 -378.0000
314 -104.0000 -20.0000
315 -490.0000 216.0000
316 -178.0000 418.0000
317 -275.0000 -411.0000
318 308.0000 345.0000
319 -89.0000  16.0000
320 -120.0000 -113.0000
321 -319.0000 -115.0000
322  19.0000 -56.0000
323 -448.0000 -235.0000
324 -78.0000 -60.0000
325 -140.0000 -110.0000
326 -424.0000 239.0000
327 -376.0000 355.0000
328  33.0000 -243.0000
329 489.0000 -230.0000
330 -310.0000 -27.0000
331 -300.0000 -413.0000
332 -64.0000 493.0000
333  29.0000 416.0000
334 359.0000 -401.0000
335 -114.0000 -116.0000
336 468.0000 322.0000
337 309.0000 396.0000
338   4.0000 -212.0000
339   9.0000 -131.0000
340 -234.0000 -265.0000
341 294.0000 473.0000
342  22.0000 -255.0000
343  54.0000 -188.0000
344 243.0000 -223.0000
345 339.0000 -178.0000
346 492.0000 142.0000
347 458.0000 -366.0000
348  55.0000  74.0000
349 226.0000 279.0000
350 -158.0000 159.0000
351 430.0000 -300.0000
352 102.0000 497.0000
353 -393.0000 137.0000
354 448.0000 -156.0000
355 -98.0000 -301.0000
356  -7.0000 -161.0000
357 160.0000 -335.0000
358 -439.0000 114.0000
359 -422.0000  21.0000
360 407.0000 -325.0000
361 -473.0000 325.0000
362 -436.0000 -305.0000
363 -456.0000 451.0000
364 474.0000 -464.0000
365 -101.0000 177.0000
366 327.0000 466.0000
367 272.0000 -279.0000
368 -138.0000 -118.0000
369  72.0000 -172.0000
370 415.0000 -487.0000
371 -114.0000  25.0000
372 -107.0000 477.0000
373 130.0000 328.0000
374 409.0000 -176.0000
375 436.0000 -312.0000
376 -19.0000 390.0000
377  22.0000 -58.0000
378   4.0000 457.0000
379 -259.0000 -290.0000
380 -296.0000 415.0000
381 -495.0000 -233.0000
382 212.0000 -193.0000
383 163.0000 171.0000
384 276.0000 343.0000
385 -89.0000 308.0000
386 -431.0000 201.0000
387 410.0000 -419.0000
388 433.0000 -432.0000
389 -251.0000 143.0000
390 -82.0000 -330.0000
391 -109.0000 -213.0000
392 -435.0000  15.0000
393 -33.0000 -80.0000
394 -261.0000 -45.0000
395 394.0000 285.0000
396 243.0000 479.0000
397 -324.0000 -407.0000
398 499.0000 -290.0000
399 416.0000 241.0000
400 -144.0000 207.0000
401 -99.0000 -462.0000
402 -130.0000 399.0000
403 -359.0000 376.0000
404 -435.0000 -344.0000
405 201.0000 214.0000
406 -32.0000 -247.0000
407 -465.0000  31.0000
408  47.0000 -424.0000
409 -156.0000 -68.0000
410  64.0000 -131.0000
411 -202.0000  14.0000
412 498.0000 -111.0000
413 451.0000 -217.0000
414  18.0000 320.0000
415 -170.0000 164.0000
416  26.0000 -38.0000
417 -471.0000 -402.0000
418 -122.0000 136.0000
419 -156.0000 154.0000
420 224.0000 285.0000
421 -155.0000 461.0000
422 -193.0000 -45.0000
423 -87.0000 -133.0000
424 228.0000  24.0000
425 -158.0000 466.0000
426 -427.0000 120.0000
427 114.0000  11.0000
428 -139.0000 -35.0000
429 -26.0000 -415.0000
430 -333.0000 -445.0000
431 -234.0000 373.0000
432 -38.0000 -207.0000
433 -76.0000 152.0000
434 -478.0000 294.0000
435   3.0000 -142.0000
436  28.0000 -144.0000
437 -86.0000 228.0000
438 284.0000 235.0000
439 129.0000  17.0000
440 354.0000 -225.0000
441 259.0000 -102.0000
442 225.0000 475.0000
443 -315.0000 -110.0000
444 -60.0000  25.0000
445 334.0000 134.0000
446 -291.0000 -350.0000
447  71.0000 -430.0000
448  56.0000  43.0000
449 317.0000 288.0000
450 256.0000 224.0000
451 125.0000  10.0000
452 -192.0000 -232.0000
453 -185.0000 442.0000
454 -459.0000  97.0000
455 310.0000 399.0000
456 194.0000 -130.0000
457 -433.0000 -277.0000
458  44.0000 -290.0000
459 -48.0000 236.0000
460 -441.0000 247.0000
461 259.0000 152.0000
462 -296.0000 378.0000
463 -381.0000 196.0000
464 381.0000 -247.0000
465 -115.0000 -323.0000
466 441.0000 430.0000
467 -221.0000  24.0000
468 -155.0000 -186.0000
469 -403.0000 384.0000
470 -141.0000 358.0000
471 -159.0000 439.0000
472 -339.0000 -188.0000
473 109.0000 -441.0000
474 -114.0000 -319.0000
475 -158.0000 136.0000
476 -10.0000  38.0000
477 -420.0000  13.0000
478 348.0000 -171.0000
479 -161.0000 -342.0000
480 223.0000 121.0000
481 444.0000 345.0000
482 -34.0000 -111.0000
483 -212.0000 -107.0000
484 -63.0000 -55.0000
485 180.0000 222.0000
486  47.0000 377.0000
487 -335.0000  63.0000
488 417.0000  33.0000
489 174.0000 372.0000
490 -25.0000 325.0000
491 308.0000 416.0000
492 -279.0000 198.0000
493 -158.0000 -322.0000
494 401.0000 170.0000
495 -115.0000 -362.0000
496 -377.0000 -187.0000
497 -319.0000 202.0000
498  85.0000 -344.0000
499 465.0000 -191.0000
500 261.0000 345.0000
DISPLAY_DATA_SECTION:
 1  250  250
 2  196  288
 3  436   34
 4  221  444
 5  393  454
 6  462  334
 7  279    1
 8  360  309
 9  485  440
10   34   39
11  402  221
12  478  348
13  496  384
14  390  120
15  164    8
16  381  121
17   36  326
18  425  407
19  489  310
20   42  148
21  260  204
22  306  368
23  278  473
24   89  185
25  376  236
26   56  128
27  214  356
28  373   81
29  285  389
30  425   21
31  376  300
32  217  263
33  412  238
34   73  236
35  416  385
36  388  191
37   55  225
38  345    1
39  344  226
40  430  174
41   89    1
42   90  374
43  225  132
44  321  147
45   20  432
46   65   56
47  405  382
48  441  274
49   18   38
50   46  427
51  304  247
52   45  137
53  107  403
54  331  157
55  126  447
56  488  310
57  483   20
58  327  371
59   88   70
60  108  417
61  189  293
62  153  435
63  387  203
64   75  424
65  220  212
66  204  136
67  138  449
68  410   13
69  331  412
70   82   69
71  397  193
72   92   93
73    6  251
74  376  105
75  235  173
76  357  461
77  137  196
78  450  144
79  122  310
80   21  443
81  434   77
82  288  328
83   31  215
84  335  428
85  231  142
86  185  239
87  448   39
88   60  256
89  194   99
90  144  483
91  225   82
92  300  192
93  259  273
94  247  321
95  270  155
96  133  295
97  162  125
98  106  201
99  104  215
100  165  222
101  479    3
102  406  445
103  462  393
104  322  343
105  136  143
106   72  186
107  131  304
108  277  225
109  271  484
110  405  380
111  386   23
112  261  373
113  346  139
114  497  149
115  148  296
116  118  314
117  220  236
118   45  234
119  250  451
120  260  246
121  391   25
122  399  396
123  153   99
124  352  170
125  361  348
126  315  388
127  191  218
128  243  453
129   13    1
130  333   67
131  158  247
132  372  473
133  417  257
134   88  310
135   21  127
136   20  472
137  187   60
138  282  106
139  271  328
140  196   68
141  154  179
142  402   69
143  113  294
144  377    7
145  127  230
146  439  391
147  329  266
148  325  163
149  355   42
150  164  417
151  111  466
152   84  458
153  109  391
154  292  197
155   93  254
156  475   74
157   93  499
158  389  303
159  396  410
160  333  318
161  241  441
162  403  329
163  182   33
164   22   79
165  404  127
166  207  188
167  367    2
168   46  372
169  175  340
170  302  320
171  238  474
172  308  425
173  326  358
174  185  475
175  259  355
176  393  439
177  226  160
178  228  361
179   53   95
180  196  382
181  106  492
182  333  409
183  150  402
184  220  229
185  228   17
186   99   51
187  455  371
188   75  437
189  322   14
190  461  392
191  319  291
192  407  466
193  274  353
194  487  240
195  137  136
196  453  195
197  356   24
198  421  142
199  217  319
200  300  242
201  309  364
202    4   86
203  388  161
204  112   41
205  136   20
206  458  133
207   88  362
208  257  494
209  398  165
210   15   25
211  259   56
212   11  224
213  371  441
214  304  370
215  450  156
216  317  354
217  168  495
218  137   45
219   77   81
220  247  483
221  260  488
222   64  436
223  206  231
224   10   48
225  197   68
226  217  280
227   24   44
228  309   19
229  417  402
230  193  197
231  245  186
232   27   90
233  488  203
234  301  204
235  422  234
236   33  236
237  390  358
238  350  308
239  441  278
240  494  151
241  323  443
242  144  456
243  161  120
244  394   96
245  353   90
246  253   35
247   12  431
248  177  438
249  157  492
250   64  228
251  486   93
252   12  243
253   43  478
254  304   30
255  224  171
256  376   24
257  168  379
258   33  200
259  301  439
260   40  320
261    4  402
262  295  300
263  169  286
264  125  234
265  151  390
266   63  320
267  462  497
268  453  138
269  438  140
270   63  304
271  348   27
272  318  351
273   25  495
274   35  389
275  315  293
276  125  367
277   99  410
278  432   65
279  149  125
280   66  393
281  383  253
282   82   72
283  286  155
284  348   57
285  115  311
286  215  456
287  117  366
288  435   48
289  157  234
290   67  212
291  238  459
292  139  297
293  107  363
294  191  324
295  280  228
296  188  180
297   84  112
298  204  500
299   57  294
300  181  182
301  319  289
302  111  116
303  383  191
304  487  342
305  300  368
306  264  246
307   83  312
308   61  213
309  315  335
310   17  463
311  133  323
312  171  322
313   74   61
314  198  240
315    5  358
316  161  459
317  112   44
318  404  422
319  205  258
320  190  193
321   90  192
322  259  222
323   26  132
324  211  220
325  180  195
326   38  369
327   62  427
328  266  128
329  494  135
330   95  236
331  100   43
332  218  496
333  264  458
334  429   49
335  193  192
336  484  411
337  404  448
338  252  144
339  254  184
340  133  117
341  397  486
342  261  122
343  277  156
344  371  138
345  419  161
346  496  321
347  479   67
348  277  287
349  363  389
350  171  329
351  465  100
352  301  498
353   53  318
354  474  172
355  201   99
356  246  169
357  330   82
358   30  307
359   39  260
360  453   87
361   13  412
362   32   97
363   22  475
364  487   18
365  199  338
366  413  483
367  386  110
368  181  191
369  286  164
370  457    6
371  193  262
372  196  488
373  315  414
374  454  162
375  468   94
376  240  445
377  261  221
378  252  478
379  120  105
380  102  457
381    2  133
382  356  153
383  331  335
384  388  421
385  205  404
386   34  350
387  455   40
388  466   34
389  124  321
390  209   85
391  195  143
392   32  257
393  233  210
394  119  227
395  447  392
396  371  489
397   88   46
398  499  105
399  458  370
400  178  353
401  200   19
402  185  449
403   70  438
404   32   78
405  350  357
406  234  126
407   17  265
408  273   38
409  172  216
410  282  184
411  149  257
412  499  194
413  475  141
414  259  410
415  165  332
416  263  231
417   14   49
418  189  318
419  172  327
420  362  392
421  172  480
422  153  227
423  206  183
424  364  262
425  171  483
426   36  310
427  307  255
428  180  232
429  237   42
430   83   27
431  133  436
432  231  146
433  212  326
434   11  397
435  251  179
436  264  178
437  207  364
438  392  367
439  314  258
440  427  137
441  379  199
442  362  487
443   92  195
444  220  262
445  417  317
446  104   75
447  285   35
448  278  271
449  408  394
450  378  362
451  312  255
452  154  134
453  157  471
454   20  298
455  405  449
456  347  185
457   33  111
458  272  105
459  226  368
460   29  373
461  379  326
462  102  439
463   59  348
464  440  126
465  192   88
466  470  465
467  139  262
468  172  157
469   48  442
470  179  429
471  170  469
472   80  156
473  304   29
474  193   90
475  171  318
476  245  269
477   40  256
478  424  164
479  169   79
480  361  310
481  472  422
482  233  194
483  144  196
484  218  222
485  340  361
486  273  438
487   82  281
488  458  266
489  337  436
490  237  412
491  404  458
492  110  349
493  171   89
494  450  335
495  192   69
496   61  156
497   90  351
498  292   78
499  482  154
500  380  422
DEMAND_SECTION
1 -10
2 10
3 0
4 -9
5 5
6 3
7 -1
8 -7
9 2
10 10
11 10
12 -6
13 -10
14 7
15 4
16 10
17 6
18 -9
19 -6
20 -9
21 7
22 1
23 6
24 2
25 -8
26 4
27 2
28 -3
29 6
30 -6
31 0
32 -5
33 8
34 -9
35 3
36 3
37 9
38 3
39 -5
40 4
41 7
42 2
43 -4
44 4
45 0
46 3
47 6
48 5
49 -7
50 -4
51 6
52 1
53 8
54 3
55 -8
56 -1
57 5
58 0
59 -1
60 3
61 -7
62 8
63 0
64 9
65 5
66 2
67 -5
68 0
69 -4
70 3
71 -8
72 -7
73 -10
74 0
75 -9
76 -4
77 -4
78 -2
79 9
80 -2
81 -5
82 0
83 9
84 7
85 0
86 0
87 -3
88 -7
89 2
90 -9
91 -1
92 4
93 -5
94 6
95 2
96 4
97 -8
98 6
99 -9
100 -8
101 3
102 -7
103 5
104 -5
105 0
106 2
107 -4
108 4
109 8
110 7
111 -3
112 -3
113 -5
114 6
115 -2
116 8
117 7
118 8
119 8
120 5
121 -8
122 -7
123 -9
124 7
125 -2
126 5
127 2
128 -1
129 7
130 10
131 -2
132 9
133 -7
134 -9
135 -7
136 1
137 6
138 -7
139 -9
140 -3
141 0
142 5
143 5
144 -5
145 5
146 9
147 7
148 -2
149 3
150 10
151 -5
152 -6
153 -8
154 2
155 0
156 -7
157 2
158 -5
159 -1
160 -10
161 8
162 -3
163 7
164 -8
165 -7
166 5
167 -9
168 5
169 -7
170 2
171 -5
172 7
173 10
174 -9
175 -6
176 6
177 -3
178 9
179 7
180 -9
181 -5
182 9
183 3
184 -1
185 -10
186 4
187 -3
188 2
189 3
190 -7
191 4
192 8
193 1
194 10
195 -5
196 2
197 4
198 -3
199 3
200 2
201 -9
202 8
203 -3
204 4
205 -4
206 9
207 -3
208 5
209 -4
210 7
211 -9
212 -1
213 0
214 3
215 -8
216 -9
217 0
218 -4
219 5
220 0
221 -7
222 -8
223 5
224 10
225 -3
226 -2
227 -6
228 -3
229 3
230 -8
231 -8
232 3
233 1
234 9
235 0
236 -7
237 0
238 -9
239 3
240 -2
241 8
242 7
243 -9
244 -3
245 -5
246 0
247 -5
248 6
249 7
250 9
251 -1
252 4
253 2
254 -1
255 -9
256 1
257 8
258 -3
259 4
260 1
261 3
262 -7
263 2
264 2
265 -2
266 -7
267 -7
268 2
269 -7
270 -10
271 -4
272 4
273 -9
274 3
275 3
276 -3
277 -5
278 -8
279 -1
280 -2
281 8
282 2
283 -8
284 8
285 3
286 -1
287 7
288 -8
289 -6
290 8
291 9
292 7
293 -10
294 8
295 4
296 -3
297 -1
298 -1
299 -6
300 2
301 -7
302 -5
303 -9
304 6
305 8
306 -5
307 -5
308 5
309 2
310 6
311 -7
312 -9
313 3
314 0
315 -9
316 2
317 5
318 3
319 2
320 -5
321 -10
322 -7
323 -2
324 2
325 3
326 -8
327 -2
328 -3
329 -9
330 -3
331 0
332 3
333 4
334 -4
335 -10
336 8
337 5
338 -2
339 -9
340 0
341 -3
342 7
343 -5
344 1
345 3
346 -4
347 2
348 -3
349 8
350 2
351 -4
352 6
353 4
354 -1
355 -4
356 1
357 -6
358 -9
359 -3
360 3
361 -6
362 1
363 4
364 0
365 8
366 -2
367 -6
368 -10
369 -4
370 2
371 2
372 -6
373 5
374 -2
375 -8
376 5
377 0
378 0
379 4
380 7
381 3
382 10
383 8
384 0
385 -6
386 -2
387 -7
388 -3
389 -2
390 -1
391 -3
392 8
393 4
394 -6
395 5
396 -5
397 1
398 1
399 6
400 10
401 8
402 -1
403 5
404 -4
405 -3
406 -3
407 -6
408 -3
409 -6
410 1
411 -10
412 -5
413 -7
414 -8
415 -2
416 4
417 -1
418 1
419 0
420 3
421 -5
422 7
423 6
424 5
425 -2
426 -10
427 5
428 6
429 1
430 3
431 -3
432 7
433 9
434 3
435 -5
436 8
437 10
438 -9
439 -10
440 -1
441 -1
442 8
443 1
444 0
445 4
446 -1
447 -6
448 -1
449 -3
450 -3
451 6
452 2
453 3
454 -1
455 0
456 5
457 7
458 1
459 -6
460 -4
461 6
462 9
463 -6
464 0
465 4
466 8
467 7
468 -1
469 1
470 -9
471 -1
472 8
473 2
474 1
475 5
476 4
477 0
478 1
479 -2
480 8
481 -5
482 -9
483 0
484 -8
485 5
486 10
487 1
488 -6
489 -3
490 4
491 7
492 2
493 5
494 2
495 8
496 6
497 7
498 1
499 -8
500 -5
EOF